CUST NO.,XCOORD.,YCOORD.,updated_SERVICE_TIME,DEMAND,TW_START,TW_END
3,22,85.0,8,0.4,384.0,720.0
9,10,35.0,8,1.0,0.0,576.0
12,8,45.0,8,1.7,0.0,576.0
13,5,35.0,8,0.8,384.0,720.0
15,2,40.0,8,1.4,0.0,576.0
17,0,45.0,8,20.0,384.0,720.0
18,44,5.0,8,1.7,0.0,576.0
21,40,5.0,8,10.0,0.0,576.0
22,40,15.0,8,40.0,0.0,576.0
25,35,5.0,8,20.0,384.0,720.0
26,40,50.0,0,0.0,0.0,0.0
capacity,1000,,0,0.0,,
